benchmarks/loan_acquisition_new/nBench2/run4/mmc_encoding/encoding.dimacs
c max 102  103  108  109  110  111  112  113  117  118 0
c ind 483  484  487  490  491  494  495  498  499  502  503  504  507  508  511  512  515  516  519  520  523  524  527  528  531  532  535  536  539  540  543  544  547  548  551  552  555  556  558  559  560 0
c This is a CNF SAT formula in the DIMACS CNF format,
c produced with the bc2cnf translator by Tommi Junttila;
c see http://users.ics.aalto.fi/tjunttil/circuits/index.html
c phi_Gamma_det <-> 1
c phi_Gamma <-> 1
c phi_T_transitions <-> 1
c phi_T <-> 1
c phi_sim_leaves <-> 1
c phi_sim_transition <-> 1
c phi_sim <-> 1
c FORMULA <-> 1
c pi_0 <-> 2
c phi_T_transitions_consistency <-> 85
c tau_0_3_approved_1 <-> 102
c tau_0_3_approved_0 <-> 103
c tau_0_2_approved_1 <-> 108
c tau_0_2_approved_0 <-> 109
c tau_0_1_approved_1 <-> 110
c tau_0_1_approved_0 <-> 111
c tau_0_0_approved_1 <-> 112
c tau_0_0_approved_0 <-> 113
c phi_T_feature_det <-> 114
c lam_0_monthly_income <-> 117
c lam_0_age <-> 118
c phi_Gamma_val <-> 481
c monthly_income_P199900 <-> 483
c age_P4000 <-> 484
c monthly_income_P309400 <-> 487
c monthly_income_P374400 <-> 490
c age_P4300 <-> 491
c monthly_income_P636000 <-> 494
c age_P7300 <-> 495
c monthly_income_P155600 <-> 498
c age_P3700 <-> 499
c pi_approved_0 <-> 502
c approved_P0 <-> 502
c monthly_income_P894300 <-> 503
c age_P2800 <-> 504
c monthly_income_P165400 <-> 507
c age_P5800 <-> 508
c monthly_income_P711200 <-> 511
c age_P6900 <-> 512
c monthly_income_P911600 <-> 515
c age_P5100 <-> 516
c monthly_income_P484800 <-> 519
c age_P6300 <-> 520
c monthly_income_P750600 <-> 523
c age_P5500 <-> 524
c monthly_income_P277900 <-> 527
c age_P3300 <-> 528
c monthly_income_P450400 <-> 531
c age_P4500 <-> 532
c monthly_income_P952300 <-> 535
c age_P6400 <-> 536
c monthly_income_P468400 <-> 539
c age_P6800 <-> 540
c monthly_income_P633900 <-> 543
c age_P4100 <-> 544
c monthly_income_P300700 <-> 547
c age_P2900 <-> 548
c monthly_income_P359100 <-> 551
c age_P4800 <-> 552
c monthly_income_P764000 <-> 555
c age_P7800 <-> 556
c pi_approved_1 <-> 558
c approved_P100 <-> 558
c monthly_income_P395700 <-> 559
c age_P7500 <-> 560
p cnf 560 1569
1 0
2 -3 0
2 -12 0
-2 12 3 0
2 0
-3 4 0
-3 58 0
3 -58 -4 0
-4 5 0
-4 117 0
4 -117 -5 0
5 -6 0
5 -33 0
-5 33 6 0
6 -7 0
6 -83 0
-6 83 7 0
7 -8 0
7 -35 0
-7 35 8 0
8 -9 0
8 -54 0
-8 54 9 0
9 -10 0
9 -55 0
-9 55 10 0
10 -11 0
10 -39 0
-10 39 11 0
11 -43 0
11 -73 0
-11 73 43 0
12 -13 0
12 -26 0
-12 26 13 0
-13 14 0
-13 76 0
13 -76 -14 0
-14 15 0
-14 117 0
14 -117 -15 0
15 -16 0
15 -63 0
-15 63 16 0
16 -17 0
16 -81 0
-16 81 17 0
17 -18 0
17 -65 0
-17 65 18 0
18 -19 0
18 -67 0
-18 67 19 0
19 -20 0
19 -52 0
-19 52 20 0
20 -21 0
20 -37 0
-20 37 21 0
21 -22 0
21 -69 0
-21 69 22 0
22 -23 0
22 -71 0
-22 71 23 0
23 -24 0
23 -41 0
-23 41 24 0
24 -25 0
24 -84 0
-24 84 25 0
25 -44 0
25 -74 0
-25 74 44 0
26 -27 0
26 -45 0
-26 45 27 0
-27 28 0
-27 31 0
27 -31 -28 0
-28 29 0
-28 30 0
28 -30 -29 0
29 102 0
29 -558 0
-29 558 -102 0
30 103 0
30 -502 0
-30 502 -103 0
-31 32 0
-31 118 0
31 -118 -32 0
32 -33 0
32 -34 0
-32 34 33 0
-33 494 0
-33 495 0
33 -495 -494 0
34 -35 0
34 -36 0
-34 36 35 0
-35 511 0
-35 512 0
35 -512 -511 0
36 -37 0
36 -38 0
-36 38 37 0
-37 519 0
-37 520 0
37 -520 -519 0
38 -39 0
38 -40 0
-38 40 39 0
-39 535 0
-39 536 0
39 -536 -535 0
40 -41 0
40 -42 0
-40 42 41 0
-41 539 0
-41 540 0
41 -540 -539 0
42 -43 0
42 -44 0
-42 44 43 0
-43 555 0
-43 556 0
43 -556 -555 0
-44 559 0
-44 560 0
44 -560 -559 0
45 -46 0
45 -56 0
-45 56 46 0
-46 47 0
-46 50 0
46 -50 -47 0
-47 48 0
-47 49 0
47 -49 -48 0
48 108 0
48 -558 0
-48 558 -108 0
49 109 0
49 -502 0
-49 502 -109 0
-50 51 0
-50 118 0
50 -118 -51 0
51 -52 0
51 -53 0
-51 53 52 0
-52 507 0
-52 508 0
52 -508 -507 0
53 -54 0
53 -55 0
-53 55 54 0
-54 515 0
-54 516 0
54 -516 -515 0
-55 523 0
-55 524 0
55 -524 -523 0
56 -57 0
56 -75 0
-56 75 57 0
-57 58 0
-57 61 0
57 -61 -58 0
-58 59 0
-58 60 0
58 -60 -59 0
59 110 0
59 -558 0
-59 558 -110 0
60 111 0
60 -502 0
-60 502 -111 0
-61 62 0
-61 118 0
61 -118 -62 0
62 -63 0
62 -64 0
-62 64 63 0
-63 483 0
-63 484 0
63 -484 -483 0
64 -65 0
64 -66 0
-64 66 65 0
-65 490 0
-65 491 0
65 -491 -490 0
66 -67 0
66 -68 0
-66 68 67 0
-67 498 0
-67 499 0
67 -499 -498 0
68 -69 0
68 -70 0
-68 70 69 0
-69 527 0
-69 528 0
69 -528 -527 0
70 -71 0
70 -72 0
-70 72 71 0
-71 531 0
-71 532 0
71 -532 -531 0
72 -73 0
72 -74 0
-72 74 73 0
-73 543 0
-73 544 0
73 -544 -543 0
-74 551 0
-74 552 0
74 -552 -551 0
-75 76 0
-75 79 0
75 -79 -76 0
-76 77 0
-76 78 0
76 -78 -77 0
77 112 0
77 -558 0
-77 558 -112 0
78 113 0
78 -502 0
-78 502 -113 0
-79 80 0
-79 118 0
79 -118 -80 0
80 -81 0
80 -82 0
-80 82 81 0
-81 487 0
-81 504 0
81 -504 -487 0
82 -83 0
82 -84 0
-82 84 83 0
-83 503 0
-83 504 0
83 -504 -503 0
-84 547 0
-84 548 0
84 -548 -547 0
85 117 0
85 -86 0
-85 86 -117 0
85 0
-86 -102 0
-86 87 0
86 -87 102 0
-87 -103 0
-87 88 0
87 -88 103 0
-88 -108 0
-88 -109 0
88 109 108 0
89 117 0
89 -90 0
-89 90 -117 0
89 0
-90 91 0
-90 94 0
90 -94 -91 0
91 -92 0
91 -93 0
-91 93 92 0
-92 -111 0
-92 110 0
92 -110 111 0
-93 -110 0
-93 111 0
93 -111 110 0
94 -95 0
94 -96 0
-94 96 95 0
-95 -113 0
-95 112 0
95 -112 113 0
-96 -112 0
-96 113 0
96 -113 112 0
97 118 0
97 -98 0
-97 98 -118 0
97 0
-98 99 0
-98 104 0
98 -104 -99 0
99 -100 0
99 -101 0
-99 101 100 0
-100 -103 0
-100 102 0
100 -102 103 0
-101 -102 0
-101 103 0
101 -103 102 0
-104 90 0
-104 105 0
104 -105 -90 0
105 -106 0
105 -107 0
-105 107 106 0
-106 -109 0
-106 108 0
106 -108 109 0
-107 -108 0
-107 109 0
107 -109 108 0
114 -115 0
114 -116 0
-114 116 115 0
114 0
-115 -118 0
-115 117 0
115 -117 118 0
-116 -117 0
-116 118 0
116 -118 117 0
119 558 0
119 502 0
-119 -502 -558 0
119 0
120 487 0
120 483 0
-120 -483 -487 0
120 0
121 490 0
121 -122 0
-121 122 -490 0
121 0
-122 -487 0
-122 -483 0
122 483 487 0
123 494 0
123 -124 0
-123 124 -494 0
123 0
-124 -483 0
-124 125 0
124 -125 483 0
-125 -487 0
-125 -490 0
125 490 487 0
126 498 0
126 -127 0
-126 127 -498 0
126 0
-127 -483 0
-127 128 0
127 -128 483 0
-128 -487 0
-128 129 0
128 -129 487 0
-129 -490 0
-129 -494 0
129 494 490 0
130 503 0
130 -131 0
-130 131 -503 0
130 0
-131 -483 0
-131 132 0
131 -132 483 0
-132 -487 0
-132 133 0
132 -133 487 0
-133 -490 0
-133 134 0
133 -134 490 0
-134 -494 0
-134 -498 0
134 498 494 0
135 507 0
135 -136 0
-135 136 -507 0
135 0
-136 -483 0
-136 137 0
136 -137 483 0
-137 -487 0
-137 138 0
137 -138 487 0
-138 -490 0
-138 139 0
138 -139 490 0
-139 -494 0
-139 140 0
139 -140 494 0
-140 -498 0
-140 -503 0
140 503 498 0
141 511 0
141 -142 0
-141 142 -511 0
141 0
-142 -483 0
-142 143 0
142 -143 483 0
-143 -487 0
-143 144 0
143 -144 487 0
-144 -490 0
-144 145 0
144 -145 490 0
-145 -494 0
-145 146 0
145 -146 494 0
-146 -498 0
-146 147 0
146 -147 498 0
-147 -503 0
-147 -507 0
147 507 503 0
148 515 0
148 -149 0
-148 149 -515 0
148 0
-149 -483 0
-149 150 0
149 -150 483 0
-150 -487 0
-150 151 0
150 -151 487 0
-151 -490 0
-151 152 0
151 -152 490 0
-152 -494 0
-152 153 0
152 -153 494 0
-153 -498 0
-153 154 0
153 -154 498 0
-154 -503 0
-154 155 0
154 -155 503 0
-155 -507 0
-155 -511 0
155 511 507 0
156 519 0
156 -157 0
-156 157 -519 0
156 0
-157 -483 0
-157 158 0
157 -158 483 0
-158 -487 0
-158 159 0
158 -159 487 0
-159 -490 0
-159 160 0
159 -160 490 0
-160 -494 0
-160 161 0
160 -161 494 0
-161 -498 0
-161 162 0
161 -162 498 0
-162 -503 0
-162 163 0
162 -163 503 0
-163 -507 0
-163 164 0
163 -164 507 0
-164 -511 0
-164 -515 0
164 515 511 0
165 523 0
165 -166 0
-165 166 -523 0
165 0
-166 -483 0
-166 167 0
166 -167 483 0
-167 -487 0
-167 168 0
167 -168 487 0
-168 -490 0
-168 169 0
168 -169 490 0
-169 -494 0
-169 170 0
169 -170 494 0
-170 -498 0
-170 171 0
170 -171 498 0
-171 -503 0
-171 172 0
171 -172 503 0
-172 -507 0
-172 173 0
172 -173 507 0
-173 -511 0
-173 174 0
173 -174 511 0
-174 -515 0
-174 -519 0
174 519 515 0
175 527 0
175 -176 0
-175 176 -527 0
175 0
-176 -483 0
-176 177 0
176 -177 483 0
-177 -487 0
-177 178 0
177 -178 487 0
-178 -490 0
-178 179 0
178 -179 490 0
-179 -494 0
-179 180 0
179 -180 494 0
-180 -498 0
-180 181 0
180 -181 498 0
-181 -503 0
-181 182 0
181 -182 503 0
-182 -507 0
-182 183 0
182 -183 507 0
-183 -511 0
-183 184 0
183 -184 511 0
-184 -515 0
-184 185 0
184 -185 515 0
-185 -519 0
-185 -523 0
185 523 519 0
186 531 0
186 -187 0
-186 187 -531 0
186 0
-187 -483 0
-187 188 0
187 -188 483 0
-188 -487 0
-188 189 0
188 -189 487 0
-189 -490 0
-189 190 0
189 -190 490 0
-190 -494 0
-190 191 0
190 -191 494 0
-191 -498 0
-191 192 0
191 -192 498 0
-192 -503 0
-192 193 0
192 -193 503 0
-193 -507 0
-193 194 0
193 -194 507 0
-194 -511 0
-194 195 0
194 -195 511 0
-195 -515 0
-195 196 0
195 -196 515 0
-196 -519 0
-196 197 0
196 -197 519 0
-197 -523 0
-197 -527 0
197 527 523 0
198 535 0
198 -199 0
-198 199 -535 0
198 0
-199 -483 0
-199 200 0
199 -200 483 0
-200 -487 0
-200 201 0
200 -201 487 0
-201 -490 0
-201 202 0
201 -202 490 0
-202 -494 0
-202 203 0
202 -203 494 0
-203 -498 0
-203 204 0
203 -204 498 0
-204 -503 0
-204 205 0
204 -205 503 0
-205 -507 0
-205 206 0
205 -206 507 0
-206 -511 0
-206 207 0
206 -207 511 0
-207 -515 0
-207 208 0
207 -208 515 0
-208 -519 0
-208 209 0
208 -209 519 0
-209 -523 0
-209 210 0
209 -210 523 0
-210 -527 0
-210 -531 0
210 531 527 0
211 539 0
211 -212 0
-211 212 -539 0
211 0
-212 -483 0
-212 213 0
212 -213 483 0
-213 -487 0
-213 214 0
213 -214 487 0
-214 -490 0
-214 215 0
214 -215 490 0
-215 -494 0
-215 216 0
215 -216 494 0
-216 -498 0
-216 217 0
216 -217 498 0
-217 -503 0
-217 218 0
217 -218 503 0
-218 -507 0
-218 219 0
218 -219 507 0
-219 -511 0
-219 220 0
219 -220 511 0
-220 -515 0
-220 221 0
220 -221 515 0
-221 -519 0
-221 222 0
221 -222 519 0
-222 -523 0
-222 223 0
222 -223 523 0
-223 -527 0
-223 224 0
223 -224 527 0
-224 -531 0
-224 -535 0
224 535 531 0
225 543 0
225 -226 0
-225 226 -543 0
225 0
-226 -483 0
-226 227 0
226 -227 483 0
-227 -487 0
-227 228 0
227 -228 487 0
-228 -490 0
-228 229 0
228 -229 490 0
-229 -494 0
-229 230 0
229 -230 494 0
-230 -498 0
-230 231 0
230 -231 498 0
-231 -503 0
-231 232 0
231 -232 503 0
-232 -507 0
-232 233 0
232 -233 507 0
-233 -511 0
-233 234 0
233 -234 511 0
-234 -515 0
-234 235 0
234 -235 515 0
-235 -519 0
-235 236 0
235 -236 519 0
-236 -523 0
-236 237 0
236 -237 523 0
-237 -527 0
-237 238 0
237 -238 527 0
-238 -531 0
-238 239 0
238 -239 531 0
-239 -535 0
-239 -539 0
239 539 535 0
240 547 0
240 -241 0
-240 241 -547 0
240 0
-241 -483 0
-241 242 0
241 -242 483 0
-242 -487 0
-242 243 0
242 -243 487 0
-243 -490 0
-243 244 0
243 -244 490 0
-244 -494 0
-244 245 0
244 -245 494 0
-245 -498 0
-245 246 0
245 -246 498 0
-246 -503 0
-246 247 0
246 -247 503 0
-247 -507 0
-247 248 0
247 -248 507 0
-248 -511 0
-248 249 0
248 -249 511 0
-249 -515 0
-249 250 0
249 -250 515 0
-250 -519 0
-250 251 0
250 -251 519 0
-251 -523 0
-251 252 0
251 -252 523 0
-252 -527 0
-252 253 0
252 -253 527 0
-253 -531 0
-253 254 0
253 -254 531 0
-254 -535 0
-254 255 0
254 -255 535 0
-255 -539 0
-255 -543 0
255 543 539 0
256 551 0
256 -257 0
-256 257 -551 0
256 0
-257 -483 0
-257 258 0
257 -258 483 0
-258 -487 0
-258 259 0
258 -259 487 0
-259 -490 0
-259 260 0
259 -260 490 0
-260 -494 0
-260 261 0
260 -261 494 0
-261 -498 0
-261 262 0
261 -262 498 0
-262 -503 0
-262 263 0
262 -263 503 0
-263 -507 0
-263 264 0
263 -264 507 0
-264 -511 0
-264 265 0
264 -265 511 0
-265 -515 0
-265 266 0
265 -266 515 0
-266 -519 0
-266 267 0
266 -267 519 0
-267 -523 0
-267 268 0
267 -268 523 0
-268 -527 0
-268 269 0
268 -269 527 0
-269 -531 0
-269 270 0
269 -270 531 0
-270 -535 0
-270 271 0
270 -271 535 0
-271 -539 0
-271 272 0
271 -272 539 0
-272 -543 0
-272 -547 0
272 547 543 0
273 555 0
273 -274 0
-273 274 -555 0
273 0
-274 -483 0
-274 275 0
274 -275 483 0
-275 -487 0
-275 276 0
275 -276 487 0
-276 -490 0
-276 277 0
276 -277 490 0
-277 -494 0
-277 278 0
277 -278 494 0
-278 -498 0
-278 279 0
278 -279 498 0
-279 -503 0
-279 280 0
279 -280 503 0
-280 -507 0
-280 281 0
280 -281 507 0
-281 -511 0
-281 282 0
281 -282 511 0
-282 -515 0
-282 283 0
282 -283 515 0
-283 -519 0
-283 284 0
283 -284 519 0
-284 -523 0
-284 285 0
284 -285 523 0
-285 -527 0
-285 286 0
285 -286 527 0
-286 -531 0
-286 287 0
286 -287 531 0
-287 -535 0
-287 288 0
287 -288 535 0
-288 -539 0
-288 289 0
288 -289 539 0
-289 -543 0
-289 290 0
289 -290 543 0
-290 -547 0
-290 -551 0
290 551 547 0
291 559 0
291 -292 0
-291 292 -559 0
291 0
-292 -483 0
-292 293 0
292 -293 483 0
-293 -487 0
-293 294 0
293 -294 487 0
-294 -490 0
-294 295 0
294 -295 490 0
-295 -494 0
-295 296 0
295 -296 494 0
-296 -498 0
-296 297 0
296 -297 498 0
-297 -503 0
-297 298 0
297 -298 503 0
-298 -507 0
-298 299 0
298 -299 507 0
-299 -511 0
-299 300 0
299 -300 511 0
-300 -515 0
-300 301 0
300 -301 515 0
-301 -519 0
-301 302 0
301 -302 519 0
-302 -523 0
-302 303 0
302 -303 523 0
-303 -527 0
-303 304 0
303 -304 527 0
-304 -531 0
-304 305 0
304 -305 531 0
-305 -535 0
-305 306 0
305 -306 535 0
-306 -539 0
-306 307 0
306 -307 539 0
-307 -543 0
-307 308 0
307 -308 543 0
-308 -547 0
-308 309 0
308 -309 547 0
-309 -551 0
-309 -555 0
309 555 551 0
310 491 0
310 484 0
-310 -484 -491 0
310 0
311 495 0
311 -312 0
-311 312 -495 0
311 0
-312 -491 0
-312 -484 0
312 484 491 0
313 499 0
313 -314 0
-313 314 -499 0
313 0
-314 -484 0
-314 315 0
314 -315 484 0
-315 -491 0
-315 -495 0
315 495 491 0
316 504 0
316 -317 0
-316 317 -504 0
316 0
-317 -484 0
-317 318 0
317 -318 484 0
-318 -491 0
-318 319 0
318 -319 491 0
-319 -495 0
-319 -499 0
319 499 495 0
320 508 0
320 -321 0
-320 321 -508 0
320 0
-321 -484 0
-321 322 0
321 -322 484 0
-322 -491 0
-322 323 0
322 -323 491 0
-323 -495 0
-323 324 0
323 -324 495 0
-324 -499 0
-324 -504 0
324 504 499 0
325 512 0
325 -326 0
-325 326 -512 0
325 0
-326 -484 0
-326 327 0
326 -327 484 0
-327 -491 0
-327 328 0
327 -328 491 0
-328 -495 0
-328 329 0
328 -329 495 0
-329 -499 0
-329 330 0
329 -330 499 0
-330 -504 0
-330 -508 0
330 508 504 0
331 516 0
331 -332 0
-331 332 -516 0
331 0
-332 -484 0
-332 333 0
332 -333 484 0
-333 -491 0
-333 334 0
333 -334 491 0
-334 -495 0
-334 335 0
334 -335 495 0
-335 -499 0
-335 336 0
335 -336 499 0
-336 -504 0
-336 337 0
336 -337 504 0
-337 -508 0
-337 -512 0
337 512 508 0
338 520 0
338 -339 0
-338 339 -520 0
338 0
-339 -484 0
-339 340 0
339 -340 484 0
-340 -491 0
-340 341 0
340 -341 491 0
-341 -495 0
-341 342 0
341 -342 495 0
-342 -499 0
-342 343 0
342 -343 499 0
-343 -504 0
-343 344 0
343 -344 504 0
-344 -508 0
-344 345 0
344 -345 508 0
-345 -512 0
-345 -516 0
345 516 512 0
346 524 0
346 -347 0
-346 347 -524 0
346 0
-347 -484 0
-347 348 0
347 -348 484 0
-348 -491 0
-348 349 0
348 -349 491 0
-349 -495 0
-349 350 0
349 -350 495 0
-350 -499 0
-350 351 0
350 -351 499 0
-351 -504 0
-351 352 0
351 -352 504 0
-352 -508 0
-352 353 0
352 -353 508 0
-353 -512 0
-353 354 0
353 -354 512 0
-354 -516 0
-354 -520 0
354 520 516 0
355 528 0
355 -356 0
-355 356 -528 0
355 0
-356 -484 0
-356 357 0
356 -357 484 0
-357 -491 0
-357 358 0
357 -358 491 0
-358 -495 0
-358 359 0
358 -359 495 0
-359 -499 0
-359 360 0
359 -360 499 0
-360 -504 0
-360 361 0
360 -361 504 0
-361 -508 0
-361 362 0
361 -362 508 0
-362 -512 0
-362 363 0
362 -363 512 0
-363 -516 0
-363 364 0
363 -364 516 0
-364 -520 0
-364 -524 0
364 524 520 0
365 532 0
365 -366 0
-365 366 -532 0
365 0
-366 -484 0
-366 367 0
366 -367 484 0
-367 -491 0
-367 368 0
367 -368 491 0
-368 -495 0
-368 369 0
368 -369 495 0
-369 -499 0
-369 370 0
369 -370 499 0
-370 -504 0
-370 371 0
370 -371 504 0
-371 -508 0
-371 372 0
371 -372 508 0
-372 -512 0
-372 373 0
372 -373 512 0
-373 -516 0
-373 374 0
373 -374 516 0
-374 -520 0
-374 375 0
374 -375 520 0
-375 -524 0
-375 -528 0
375 528 524 0
376 536 0
376 -377 0
-376 377 -536 0
376 0
-377 -484 0
-377 378 0
377 -378 484 0
-378 -491 0
-378 379 0
378 -379 491 0
-379 -495 0
-379 380 0
379 -380 495 0
-380 -499 0
-380 381 0
380 -381 499 0
-381 -504 0
-381 382 0
381 -382 504 0
-382 -508 0
-382 383 0
382 -383 508 0
-383 -512 0
-383 384 0
383 -384 512 0
-384 -516 0
-384 385 0
384 -385 516 0
-385 -520 0
-385 386 0
385 -386 520 0
-386 -524 0
-386 387 0
386 -387 524 0
-387 -528 0
-387 -532 0
387 532 528 0
388 540 0
388 -389 0
-388 389 -540 0
388 0
-389 -484 0
-389 390 0
389 -390 484 0
-390 -491 0
-390 391 0
390 -391 491 0
-391 -495 0
-391 392 0
391 -392 495 0
-392 -499 0
-392 393 0
392 -393 499 0
-393 -504 0
-393 394 0
393 -394 504 0
-394 -508 0
-394 395 0
394 -395 508 0
-395 -512 0
-395 396 0
395 -396 512 0
-396 -516 0
-396 397 0
396 -397 516 0
-397 -520 0
-397 398 0
397 -398 520 0
-398 -524 0
-398 399 0
398 -399 524 0
-399 -528 0
-399 400 0
399 -400 528 0
-400 -532 0
-400 -536 0
400 536 532 0
401 544 0
401 -402 0
-401 402 -544 0
401 0
-402 -484 0
-402 403 0
402 -403 484 0
-403 -491 0
-403 404 0
403 -404 491 0
-404 -495 0
-404 405 0
404 -405 495 0
-405 -499 0
-405 406 0
405 -406 499 0
-406 -504 0
-406 407 0
406 -407 504 0
-407 -508 0
-407 408 0
407 -408 508 0
-408 -512 0
-408 409 0
408 -409 512 0
-409 -516 0
-409 410 0
409 -410 516 0
-410 -520 0
-410 411 0
410 -411 520 0
-411 -524 0
-411 412 0
411 -412 524 0
-412 -528 0
-412 413 0
412 -413 528 0
-413 -532 0
-413 414 0
413 -414 532 0
-414 -536 0
-414 -540 0
414 540 536 0
415 548 0
415 -416 0
-415 416 -548 0
415 0
-416 -484 0
-416 417 0
416 -417 484 0
-417 -491 0
-417 418 0
417 -418 491 0
-418 -495 0
-418 419 0
418 -419 495 0
-419 -499 0
-419 420 0
419 -420 499 0
-420 -504 0
-420 421 0
420 -421 504 0
-421 -508 0
-421 422 0
421 -422 508 0
-422 -512 0
-422 423 0
422 -423 512 0
-423 -516 0
-423 424 0
423 -424 516 0
-424 -520 0
-424 425 0
424 -425 520 0
-425 -524 0
-425 426 0
425 -426 524 0
-426 -528 0
-426 427 0
426 -427 528 0
-427 -532 0
-427 428 0
427 -428 532 0
-428 -536 0
-428 429 0
428 -429 536 0
-429 -540 0
-429 -544 0
429 544 540 0
430 552 0
430 -431 0
-430 431 -552 0
430 0
-431 -484 0
-431 432 0
431 -432 484 0
-432 -491 0
-432 433 0
432 -433 491 0
-433 -495 0
-433 434 0
433 -434 495 0
-434 -499 0
-434 435 0
434 -435 499 0
-435 -504 0
-435 436 0
435 -436 504 0
-436 -508 0
-436 437 0
436 -437 508 0
-437 -512 0
-437 438 0
437 -438 512 0
-438 -516 0
-438 439 0
438 -439 516 0
-439 -520 0
-439 440 0
439 -440 520 0
-440 -524 0
-440 441 0
440 -441 524 0
-441 -528 0
-441 442 0
441 -442 528 0
-442 -532 0
-442 443 0
442 -443 532 0
-443 -536 0
-443 444 0
443 -444 536 0
-444 -540 0
-444 445 0
444 -445 540 0
-445 -544 0
-445 -548 0
445 548 544 0
446 556 0
446 -447 0
-446 447 -556 0
446 0
-447 -484 0
-447 448 0
447 -448 484 0
-448 -491 0
-448 449 0
448 -449 491 0
-449 -495 0
-449 450 0
449 -450 495 0
-450 -499 0
-450 451 0
450 -451 499 0
-451 -504 0
-451 452 0
451 -452 504 0
-452 -508 0
-452 453 0
452 -453 508 0
-453 -512 0
-453 454 0
453 -454 512 0
-454 -516 0
-454 455 0
454 -455 516 0
-455 -520 0
-455 456 0
455 -456 520 0
-456 -524 0
-456 457 0
456 -457 524 0
-457 -528 0
-457 458 0
457 -458 528 0
-458 -532 0
-458 459 0
458 -459 532 0
-459 -536 0
-459 460 0
459 -460 536 0
-460 -540 0
-460 461 0
460 -461 540 0
-461 -544 0
-461 462 0
461 -462 544 0
-462 -548 0
-462 -552 0
462 552 548 0
463 560 0
463 -464 0
-463 464 -560 0
463 0
-464 -484 0
-464 465 0
464 -465 484 0
-465 -491 0
-465 466 0
465 -466 491 0
-466 -495 0
-466 467 0
466 -467 495 0
-467 -499 0
-467 468 0
467 -468 499 0
-468 -504 0
-468 469 0
468 -469 504 0
-469 -508 0
-469 470 0
469 -470 508 0
-470 -512 0
-470 471 0
470 -471 512 0
-471 -516 0
-471 472 0
471 -472 516 0
-472 -520 0
-472 473 0
472 -473 520 0
-473 -524 0
-473 474 0
473 -474 524 0
-474 -528 0
-474 475 0
474 -475 528 0
-475 -532 0
-475 476 0
475 -476 532 0
-476 -536 0
-476 477 0
476 -477 536 0
-477 -540 0
-477 478 0
477 -478 540 0
-478 -544 0
-478 479 0
478 -479 544 0
-479 -548 0
-479 480 0
479 -480 548 0
-480 -552 0
-480 -556 0
480 556 552 0
481 -482 0
481 -485 0
-481 485 482 0
481 0
-482 63 0
-482 558 0
482 -558 -63 0
485 -486 0
485 -488 0
-485 488 486 0
-486 81 0
-486 558 0
486 -558 -81 0
488 -489 0
488 -492 0
-488 492 489 0
-489 65 0
-489 558 0
489 -558 -65 0
492 -493 0
492 -496 0
-492 496 493 0
-493 33 0
-493 558 0
493 -558 -33 0
496 -497 0
496 -500 0
-496 500 497 0
-497 67 0
-497 558 0
497 -558 -67 0
500 -501 0
500 -505 0
-500 505 501 0
-501 83 0
-501 502 0
501 -502 -83 0
505 -506 0
505 -509 0
-505 509 506 0
-506 52 0
-506 558 0
506 -558 -52 0
509 -510 0
509 -513 0
-509 513 510 0
-510 35 0
-510 558 0
510 -558 -35 0
513 -514 0
513 -517 0
-513 517 514 0
-514 54 0
-514 558 0
514 -558 -54 0
517 -518 0
517 -521 0
-517 521 518 0
-518 37 0
-518 558 0
518 -558 -37 0
521 -522 0
521 -525 0
-521 525 522 0
-522 55 0
-522 558 0
522 -558 -55 0
525 -526 0
525 -529 0
-525 529 526 0
-526 69 0
-526 558 0
526 -558 -69 0
529 -530 0
529 -533 0
-529 533 530 0
-530 71 0
-530 558 0
530 -558 -71 0
533 -534 0
533 -537 0
-533 537 534 0
-534 39 0
-534 558 0
534 -558 -39 0
537 -538 0
537 -541 0
-537 541 538 0
-538 41 0
-538 558 0
538 -558 -41 0
541 -542 0
541 -545 0
-541 545 542 0
-542 73 0
-542 558 0
542 -558 -73 0
545 -546 0
545 -549 0
-545 549 546 0
-546 84 0
-546 558 0
546 -558 -84 0
549 -550 0
549 -553 0
-549 553 550 0
-550 74 0
-550 558 0
550 -558 -74 0
553 -554 0
553 -557 0
-553 557 554 0
-554 43 0
-554 558 0
554 -558 -43 0
-557 44 0
-557 558 0
557 -558 -44 0
